Strategies:  

WARNING: for repeatability, setting FPU to use double precision


Strategies: -b -p  

WARNING: for repeatability, setting FPU to use double precision
============================[ Problem Statistics ]=============================
|                                                                             |
|  Number of variables:           999                                         |
|  Number of clauses:          338580                                         |
|  Parse time:                   0.25 s                                       |
|  Eliminated clauses:           0.00 Mb                                      |
|  Simplification time:         23.68 s                                       |
|                                                                             |
============================[ Search Statistics ]==============================
| Conflicts |          ORIGINAL         |          LEARNT          | Progress |
|           |    Vars  Clauses Literals |    Limit  Clauses Lit/Cl |          |
===============================================================================
===============================================================================
restarts              : 1
conflicts             : 1              (0 /sec)
decisions             : 2              (0.00 % random) (0 /sec)
propagations          : 734            (31 /sec)
conflict literals     : 1              (0.00 % deleted)
Memory used           : 91.00 MB
CPU time              : 23.932 s

SATISFIABLE


Strategies: -b -x  

WARNING: for repeatability, setting FPU to use double precision
============================[ Problem Statistics ]=============================
|                                                                             |
|  Number of variables:           999                                         |
|  Number of clauses:          302292                                         |
|  Parse time:                   0.21 s                                       |
|  Eliminated clauses:           0.00 Mb                                      |
|  Simplification time:          0.33 s                                       |
|                                                                             |
============================[ Search Statistics ]==============================
| Conflicts |          ORIGINAL         |          LEARNT          | Progress |
|           |    Vars  Clauses Literals |    Limit  Clauses Lit/Cl |          |
===============================================================================
===============================================================================
restarts              : 1
conflicts             : 1              (2 /sec)
decisions             : 2              (0.00 % random) (4 /sec)
propagations          : 760            (1407 /sec)
conflict literals     : 1              (0.00 % deleted)
Memory used           : 77.00 MB
CPU time              : 0.54 s

SATISFIABLE


Strategies: -b -x -p  

WARNING: for repeatability, setting FPU to use double precision
============================[ Problem Statistics ]=============================
|                                                                             |
|  Number of variables:           999                                         |
|  Number of clauses:          628884                                         |
|  Parse time:                   0.47 s                                       |
|  Eliminated clauses:           0.00 Mb                                      |
|  Simplification time:         26.44 s                                       |
|                                                                             |
============================[ Search Statistics ]==============================
| Conflicts |          ORIGINAL         |          LEARNT          | Progress |
|           |    Vars  Clauses Literals |    Limit  Clauses Lit/Cl |          |
===============================================================================
===============================================================================
restarts              : 1
conflicts             : 1              (0 /sec)
decisions             : 2              (0.00 % random) (0 /sec)
propagations          : 734            (27 /sec)
conflict literals     : 1              (0.00 % deleted)
Memory used           : 142.00 MB
CPU time              : 26.912 s

SATISFIABLE


Strategies: -b -a  

WARNING: for repeatability, setting FPU to use double precision
============================[ Problem Statistics ]=============================
|                                                                             |
|  Number of variables:           999                                         |
|  Number of clauses:          956772                                         |
|  Parse time:                   1.02 s                                       |
|  Eliminated clauses:           0.00 Mb                                      |
|  Simplification time:          2.56 s                                       |
|                                                                             |
============================[ Search Statistics ]==============================
| Conflicts |          ORIGINAL         |          LEARNT          | Progress |
|           |    Vars  Clauses Literals |    Limit  Clauses Lit/Cl |          |
===============================================================================
===============================================================================
restarts              : 1
conflicts             : 1              (0 /sec)
decisions             : 2              (0.00 % random) (1 /sec)
propagations          : 760            (212 /sec)
conflict literals     : 1              (0.00 % deleted)
Memory used           : 287.00 MB
CPU time              : 3.588 s

SATISFIABLE


Strategies:  

WARNING: for repeatability, setting FPU to use double precision
============================[ Problem Statistics ]=============================
|                                                                             |
|  Number of variables:           999                                         |
|  Number of clauses:            9072                                         |
|  Parse time:                   0.00 s                                       |
|  Eliminated clauses:           0.00 Mb                                      |
|  Simplification time:          0.00 s                                       |
|                                                                             |
============================[ Search Statistics ]==============================
| Conflicts |          ORIGINAL         |          LEARNT          | Progress |
|           |    Vars  Clauses Literals |    Limit  Clauses Lit/Cl |          |
===============================================================================
===============================================================================
restarts              : 1
conflicts             : 1              (250 /sec)
decisions             : 2              (0.00 % random) (500 /sec)
propagations          : 739            (184750 /sec)
conflict literals     : 1              (0.00 % deleted)
Memory used           : 22.00 MB
CPU time              : 0.004 s

SATISFIABLE


Strategies: -b  

WARNING: for repeatability, setting FPU to use double precision
============================[ Problem Statistics ]=============================
|                                                                             |
|  Number of variables:           999                                         |
|  Number of clauses:           11988                                         |
|  Parse time:                   0.00 s                                       |
|  Eliminated clauses:           0.00 Mb                                      |
|  Simplification time:          0.01 s                                       |
|                                                                             |
============================[ Search Statistics ]==============================
| Conflicts |          ORIGINAL         |          LEARNT          | Progress |
|           |    Vars  Clauses Literals |    Limit  Clauses Lit/Cl |          |
===============================================================================
===============================================================================
restarts              : 1
conflicts             : 1              (83 /sec)
decisions             : 2              (0.00 % random) (167 /sec)
propagations          : 760            (63333 /sec)
conflict literals     : 1              (0.00 % deleted)
Memory used           : 23.00 MB
CPU time              : 0.012 s

SATISFIABLE


